/* Objective function */
min: - 0.0054fpdi - 0.0054fpdo + 0.05apdi + 0.05apdo + 0.0002pi + 0.0002po - 0.5fsi - 0.5fso;

apdi = 0.0 hi + 0.0 li + 7.79315 ri + 0.0754 ci + -1.42738 si + 0.0 ti + 0.07313 fTempIi + 0.04011 ami + -95.99518;
asi = 0.0 hi + 0.0 li + -0.00067 ri + 0.00109 ci + -0.0002 si + -0.0 ti + -5e-05 fTempIi + 0.00043 ami + 0.01389;
aTempOi = 0.0 hi + -0.0 li + 0.17272 ri + -0.21119 ci + -0.03204 si + 0.0 ti + 0.82165 fTempIi + -0.00151 ami + 6.67677;
fpdi = 0.0 hi + -0.0 li + 27.32589 ri + -325.7754 ci + -0.01017 si + 0.0 ti + -1.74415 fTempIi + 0.00232 ami + 837.90642;
fsi = 0.0 hi + -0.0 li + 0.0 ri + -0.52 ci + -0.0 si + 0.0 ti + -0.0 fTempIi + -0.0 ami + 2.59;
fTempOi = 0.0 hi + 0.0 li + -0.17076 ri + 0.21766 ci + 0.03131 si + -0.0 ti + 0.21447 fTempIi + -0.00162 ami + 10.57938;
pi = 0.0 hi + 0.0 li + 101.24107 ri + 3.0119 ci + -8.315 si + 0.0 ti + 0.07381 fTempIi + -2e-05 ami + 274.02103;

apdo = 0.0 ho + -0.0 lo + 8.01488 ro + 0.125 co + -0.84405 so + -0.0 to + 0.09388 fTempIo + 0.02432 amo + -58.8932;
aso = 0.0 ho + -0.0 lo + 0.00036 ro + 0.00131 co + -7e-05 so + 0.0 to + 0.00078 fTempIo + 0.00043 amo + -0.00812;
aTempOo = 0.0 ho + -0.0 lo + -0.45522 ro + 0.33051 co + 0.05007 so + 0.0 to + 0.71299 fTempIo + 0.00151 amo + 1.0318;
fpdo = 0.0 ho + 0.0 lo + 26.66146 ro + -189.62054 co + 0.05189 so + -0.0 to + -1.19023 fTempIo + -0.0012 amo + 489.43368;
fso = 0.0 ho + 0.0 lo + 9e-05 ro + -0.51958 co + -1e-05 so + -0.0 to + 0.00017 fTempIo + 0.0 amo + 2.58586;
fTempOo = 0.0 ho + 0.0 lo + 0.45 ro + -0.34464 co + -0.04843 so + -0.0 to + 0.31474 fTempIo + 0.0015 amo + 11.23223;
po = 0.0 ho + -0.0 lo + 82.08333 ro + 2.95833 co + -4.38179 so + 0.0 to + -0.12143 fTempIo + 0.00021 amo + 293.73631;

/* Variable bounds */
aTempOi > 18.6;
1 =r6i + r8i + r10i + r12i + r14i;
ri =6r6i + 8r8i + 10r10i + 12r12i + 14r14i;
1 =s30i + s40i + s50i + s60i;
si =30s30i + 40s40i + 50s50i + 60s60i;
ti = 3;
apdi > 100;
apdi < 300;
asi > 0;
asi < 3;
aTempOi > 5;
aTempOi < 25;
fpdi > 100;
fpdi < 300;
fsi > 0;
fsi < 1.25;
fTempOi > 5;
fTempOi < 25;
pi > 0;
ri > 10;
ri < 14;
ci > 1;
ci < 4;
si > 25;
si < 60;
ti > 1;
ti < 3;
fTempIi > 5;
fTempIi < 25;

/* aTempOo < 11.4; */
1 =r6o + r8o + r10o + r12o + r14o;
ro =6r6o + 8r8o + 10r10o + 12r12o + 14r14o;
1 =s30o + s40o + s50o + s60o;
so =30s30o + 40s40o + 50s50o + 60s60o;
to = 3;
apdo > 100;
apdo < 300;
aso > 0;
aso < 3;
aTempOo > 5;
aTempOo < 25;
fpdo > 100;
fpdo < 300;
fso > 0;
fso < 1.25;
fTempOo > 5;
fTempOo < 25;
po > 0;
ro > 6;
ro < 10;
co > 1;
co < 4;
so > 25;
so < 60;
to > 1;
to < 3;
fTempIo > 5;
fTempIo < 25;
int hi,li,si,ti,ci,ri,ami;
int ho,lo,so,to,co,ro,amo;
bin s25i,s30i,s40i,s50i,s60i,r6i,r8i,r10i,r12i,r14i;
bin s25o,s30o,s40o,s50o,s60o,r6o,r8o,r10o,r12o,r14o;
